c This is an instance of the exact track of PACE 2020 Challenge, see https://pacechallenge.org/2020/ 
c TYPE: generated 
c ORIGIN: Python networkx package 
c DESCRIPTION: A  Margulis-Gabber-Galil undirected graph (8-regular expander with multiple edges removed) on n^2 nodes. Generated using margulis_gabber_galil_graph from Python’s networkx package 
p tdp 441 1638
1 2
1 3
1 59
1 440
2 62
2 63
2 64
2 93
2 95
3 4
3 5
3 6
3 415
3 423
4 66
4 103
4 102
4 104
4 125
4 127
4 431
5 65
5 103
5 139
5 138
5 140
5 156
5 157
6 7
6 8
6 9
6 354
6 372
7 142
7 175
7 174
7 122
7 183
7 186
7 416
8 63
8 175
8 205
8 86
8 39
9 10
9 11
9 12
9 266
9 293
10 207
10 237
10 236
10 238
10 193
10 124
10 391
11 64
11 237
11 266
11 265
11 267
11 278
11 279
12 13
12 14
12 15
12 148
12 179
13 269
13 295
13 294
13 260
13 300
13 301
13 356
14 67
14 295
14 317
14 233
14 175
14 320
14 321
15 16
15 17
15 18
16 319
16 72
16 338
17 69
17 177
17 111
17 357
17 358
18 19
18 20
18 21
18 298
18 320
19 264
19 207
19 137
19 184
19 376
19 377
19 275
20 71
20 370
20 334
20 184
20 215
20 362
20 326
21 22
21 23
21 24
21 248
21 276
22 386
22 276
22 299
22 256
22 198
22 410
22 219
23 73
23 299
23 321
23 167
23 96
23 54
23 418
24 25
24 26
24 27
24 171
24 221
25 359
25 375
25 424
25 425
25 133
25 55
25 155
26 75
26 375
26 390
26 422
26 402
26 284
26 230
27 28
27 29
27 30
27 112
27 143
28 413
28 426
28 355
28 317
28 346
28 308
28 81
29 77
29 426
29 433
29 297
29 246
29 421
29 397
30 31
30 32
30 79
31 441
31 155
31 81
31 439
31 429
32 33
32 34
32 35
32 435
32 439
33 75
33 77
33 34
33 84
33 83
33 85
33 439
34 104
34 107
34 84
34 122
34 121
34 123
35 36
35 37
35 38
35 395
35 409
36 149
36 137
36 124
36 161
36 160
36 162
36 429
37 82
37 176
37 178
37 161
37 195
37 194
37 136
38 39
38 40
38 41
38 327
38 345
39 206
39 196
39 227
39 411
40 83
40 202
40 139
40 227
40 255
40 239
40 242
41 42
41 43
41 44
41 228
41 256
42 232
42 256
42 283
42 276
42 277
42 273
42 382
43 85
43 283
43 306
43 301
43 302
43 290
43 292
44 45
44 46
44 47
44 92
44 130
45 308
45 329
45 226
45 163
45 331
45 311
45 347
46 87
46 329
46 347
46 128
46 348
47 48
47 49
47 50
47 330
47 348
48 165
48 92
48 89
48 123
48 366
48 367
48 309
49 89
49 304
49 255
49 123
49 157
49 384
49 385
50 51
50 52
50 53
50 265
50 288
51 362
51 326
51 217
51 241
51 334
51 291
51 259
52 91
52 403
52 405
52 241
52 265
52 266
52 210
53 54
53 55
53 56
53 220
53 244
54 417
54 413
54 311
54 350
54 115
54 201
55 93
55 151
55 78
55 350
55 367
55 426
56 57
56 58
56 59
56 162
56 192
57 243
57 185
57 398
57 408
57 420
57 395
57 135
58 95
58 355
58 317
58 408
58 418
58 380
58 346
59 60
59 61
59 97
59 131
60 404
60 373
60 432
60 437
60 285
60 231
60 61
61 97
61 440
61 431
61 437
61 201
61 135
62 100
62 101
62 102
62 123
62 125
63 68
63 67
63 69
63 97
63 372
63 389
64 65
64 70
64 69
64 71
64 293
64 316
65 66
65 67
65 95
65 97
65 423
65 431
66 139
66 173
66 172
66 174
66 180
66 183
67 72
67 71
67 73
67 179
67 210
68 105
68 205
68 235
68 234
68 236
68 252
68 193
69 74
69 73
69 75
70 108
70 266
70 293
70 292
70 294
70 299
70 300
71 76
71 75
71 77
71 320
71 338
72 101
72 317
72 337
72 145
73 78
73 77
73 79
73 276
73 299
74 102
74 313
74 264
74 375
74 376
75 80
75 79
75 221
75 250
76 104
76 215
76 245
76 305
76 256
76 408
76 410
77 81
77 82
77 143
77 172
78 107
78 321
78 339
78 424
78 199
78 133
79 82
79 83
79 114
80 110
80 390
80 401
80 389
80 355
80 380
80 346
81 112
81 433
81 219
81 155
81 439
82 86
82 85
82 87
82 409
82 421
83 88
83 87
83 89
83 345
83 364
84 147
84 149
84 122
84 159
84 158
84 160
85 90
85 89
85 91
85 256
85 283
86 117
86 103
86 195
86 226
87 92
87 91
87 93
87 130
87 166
88 119
88 255
88 282
88 274
88 276
88 270
88 273
89 94
89 93
89 95
89 348
90 120
90 306
90 328
90 280
90 226
90 330
90 331
91 96
91 95
91 97
91 288
91 331
92 121
92 227
92 165
92 347
92 366
93 98
93 97
93 244
93 267
94 123
94 393
94 362
94 157
94 189
94 370
94 334
95 99
95 192
95 222
96 125
96 417
96 265
96 288
96 182
96 115
97 131
97 164
98 127
98 295
98 243
98 367
98 383
98 434
98 420
99 129
99 423
99 404
99 418
99 424
99 329
99 285
100 136
100 137
100 138
100 154
100 156
101 111
101 110
101 112
101 131
101 210
101 240
102 113
102 112
102 114
103 173
103 204
103 159
104 105
104 115
104 114
104 338
104 357
105 106
105 107
105 127
105 129
105 389
105 404
106 141
106 235
106 264
106 263
106 265
106 277
106 278
107 108
107 116
107 117
107 299
107 321
108 109
108 110
108 129
108 131
108 316
108 336
109 144
109 293
109 316
109 286
109 233
109 318
109 320
110 118
110 117
110 119
110 250
110 277
111 147
111 235
111 177
111 337
111 356
111 357
112 119
112 120
112 172
112 223
113 149
113 370
113 393
113 362
113 399
114 120
114 121
114 146
115 137
115 245
115 274
115 229
115 167
116 138
116 339
116 358
116 432
116 422
116 328
116 284
117 124
117 123
117 125
117 421
117 429
118 140
118 401
118 417
118 337
118 297
118 435
118 421
119 126
119 125
119 127
119 364
119 380
120 128
120 127
120 129
120 283
120 306
121 130
121 129
121 131
121 166
121 198
122 176
122 159
122 193
122 192
122 194
123 132
123 131
124 202
124 226
124 254
124 239
124 249
125 133
125 331
125 349
126 152
126 282
126 305
126 300
126 301
126 288
126 290
127 134
127 267
127 290
128 154
128 328
128 346
128 196
129 135
129 222
129 247
130 156
130 343
130 304
130 383
130 384
131 164
131 194
132 157
132 401
132 403
132 189
132 214
132 315
132 266
133 158
133 213
133 151
133 288
133 331
134 160
134 389
134 355
134 383
134 396
134 409
134 380
135 162
135 440
135 424
135 259
135 201
136 170
136 171
136 172
136 180
137 151
137 152
137 164
137 357
138 153
138 152
138 154
138 321
138 339
139 204
139 233
139 234
139 251
139 252
140 141
140 155
140 154
140 156
140 277
140 300
141 142
141 143
141 157
141 158
141 404
141 416
142 264
142 291
142 290
142 292
142 298
142 299
143 144
143 156
143 157
143 223
143 251
144 145
144 146
144 158
144 160
144 336
144 355
145 176
145 316
145 336
145 205
146 147
146 157
146 158
146 174
147 148
147 160
147 162
147 240
147 269
148 178
148 352
148 313
148 356
148 374
148 375
149 150
149 162
149 164
150 181
150 344
150 305
150 406
150 408
151 184
151 274
151 298
151 257
151 199
152 163
152 162
152 164
152 380
152 397
153 187
153 358
153 374
153 415
153 389
153 409
153 380
154 165
154 164
154 306
154 328
155 171
155 417
155 275
155 219
156 166
156 198
156 229
157 167
158 168
158 349
158 366
159 170
159 193
159 225
160 169
160 290
160 311
161 254
161 281
161 271
161 274
161 267
161 270
162 247
162 270
163 180
163 305
163 327
163 324
163 280
163 330
164 194
164 224
165 183
165 281
165 227
165 346
165 365
166 186
166 392
166 393
166 399
166 370
167 189
167 214
167 238
167 240
167 182
168 190
168 336
168 295
168 331
168 349
168 433
168 434
169 191
169 436
169 423
169 396
169 406
169 365
169 329
170 202
170 203
171 189
171 190
171 194
171 300
171 322
172 190
172 191
172 251
172 278
173 233
173 262
173 261
173 263
173 276
173 277
174 191
174 192
174 203
175 291
175 315
175 314
175 286
175 318
176 177
176 186
176 189
176 355
176 373
177 206
177 289
177 235
177 336
177 355
178 179
178 180
178 189
178 190
178 269
178 295
179 209
179 392
179 393
179 398
179 399
180 181
180 196
180 397
180 411
181 182
181 183
181 190
181 191
182 212
182 283
182 229
183 184
183 197
183 328
183 346
184 185
184 186
184 191
184 192
185 215
185 298
185 320
185 432
185 364
185 328
186 187
186 198
186 229
186 257
187 188
187 189
187 192
187 194
187 339
187 358
188 218
188 374
188 388
188 373
188 337
188 441
188 435
189 199
190 200
190 366
190 381
191 201
191 311
191 350
192 270
192 292
193 225
193 253
193 247
193 249
194 224
194 249
195 281
195 304
195 299
195 300
195 287
195 288
196 327
196 345
196 254
197 208
197 377
197 343
197 365
197 382
197 381
197 383
198 211
198 401
198 353
198 315
199 214
199 269
199 213
199 238
199 263
200 217
200 415
200 389
200 349
200 366
200 428
200 409
201 220
201 406
201 309
201 259
202 232
202 250
202 251
203 224
203 252
204 262
204 289
204 288
204 290
204 296
204 298
205 315
205 335
205 262
206 207
206 208
206 373
206 391
207 352
207 355
207 373
207 374
207 385
208 209
208 228
208 346
208 365
209 210
209 211
209 295
209 317
210 239
210 378
210 344
210 406
211 212
211 229
211 257
211 284
212 213
212 214
213 242
213 306
213 257
214 215
214 230
215 216
215 217
216 245
216 320
216 338
216 430
216 415
216 428
216 409
217 218
217 231
217 381
218 219
218 220
218 358
218 374
219 248
219 388
219 319
219 275
220 221
220 350
220 367
221 222
221 322
221 340
222 223
222 292
222 312
223 224
223 278
223 301
224 249
224 273
225 253
225 280
225 268
225 271
225 265
225 267
226 304
226 326
226 323
226 324
227 325
227 281
227 345
227 364
228 234
228 390
228 392
228 382
228 398
228 399
229 236
229 293
229 240
230 238
230 372
230 336
230 263
230 287
230 433
231 241
231 436
231 366
231 381
231 397
231 365
232 260
232 261
232 274
232 276
233 289
233 313
233 312
233 314
234 256
234 242
234 245
234 365
234 382
235 332
235 289
235 335
235 354
236 257
236 245
236 248
236 284
236 308
237 373
237 391
237 390
237 392
237 396
237 398
238 239
238 258
238 248
238 250
239 240
239 241
239 317
239 337
240 268
240 327
240 283
241 242
241 259
241 250
241 251
242 243
242 244
243 271
243 395
243 364
244 245
244 251
244 252
244 367
244 383
245 246
245 247
246 274
246 338
246 357
246 404
246 373
246 441
247 248
247 252
247 312
247 351
248 249
248 374
248 388
249 250
249 273
249 294
250 340
250 359
251 301
251 323
252 279
253 280
253 303
253 298
253 299
253 307
253 287
254 326
254 344
254 303
255 376
255 377
255 364
255 380
255 381
256 386
256 353
257 261
257 316
257 269
258 263
258 430
258 415
258 287
258 330
258 438
258 428
259 265
259 381
259 347
259 309
260 286
260 287
260 288
260 296
261 284
261 277
261 278
261 308
261 329
262 313
262 334
262 310
263 285
263 278
263 279
264 354
264 372
264 384
264 385
265 279
266 391
266 405
266 378
267 268
267 383
267 396
268 269
268 270
268 279
268 337
268 356
269 345
269 306
270 271
270 351
270 368
271 272
271 273
272 296
272 437
272 430
272 438
272 428
273 274
273 294
273 314
274 275
275 298
275 357
275 356
275 319
276 388
277 359
277 375
278 323
278 341
279 302
280 303
280 325
280 322
280 323
281 361
281 325
281 344
281 363
282 388
282 390
282 380
282 397
282 396
282 398
283 335
283 293
284 307
284 402
284 372
285 287
285 330
285 348
285 421
285 397
286 310
286 311
286 312
287 309
287 294
289 332
289 334
289 353
289 369
290 396
290 406
291 372
291 389
291 388
291 390
291 396
292 307
292 368
292 384
293 363
293 327
294 307
294 314
294 333
295 420
295 395
296 297
296 301
296 302
297 318
297 423
297 404
298 302
300 375
300 390
301 341
301 360
302 307
302 324
303 325
303 343
303 342
304 375
304 376
304 363
304 379
305 397
305 411
305 410
305 386
306 354
306 316
307 308
307 329
307 347
308 430
308 438
308 437
309 330
309 348
309 382
309 347
310 332
310 333
311 330
311 314
311 406
312 330
312 331
312 384
312 398
313 353
313 371
313 383
313 384
314 331
314 333
314 369
315 389
315 404
315 403
315 405
316 379
316 345
317 437
317 438
318 319
318 321
318 322
319 391
319 356
320 322
320 323
321 323
321 324
322 324
322 390
322 401
323 360
323 376
324 342
325 360
325 361
325 343
325 362
326 388
326 379
326 395
326 396
327 411
327 371
327 335
328 422
328 402
329 435
329 421
332 352
332 368
332 369
333 351
333 369
333 385
334 371
334 387
334 388
335 404
335 416
335 394
335 363
336 434
336 420
337 436
337 423
338 339
339 340
340 341
340 401
340 417
341 342
341 376
341 392
342 361
343 374
343 375
343 362
343 378
344 395
344 409
344 408
344 410
345 387
345 354
346 437
347 411
347 382
348 349
349 350
350 351
351 398
351 408
352 370
352 381
352 383
353 387
353 402
353 401
353 403
354 416
354 407
354 379
356 416
356 391
357 358
357 359
358 359
358 360
359 360
359 361
359 417
360 361
360 392
360 403
361 377
362 378
362 394
363 409
363 421
363 400
363 371
364 422
364 432
365 441
365 435
366 367
366 368
367 368
367 369
368 369
368 408
368 418
369 385
369 399
370 386
371 402
371 415
371 414
371 394
372 433
372 434
373 436
374 377
376 403
376 413
377 393
378 394
378 407
378 406
378 408
379 412
379 387
379 421
379 429
381 385
382 429
382 411
384 418
384 424
385 399
385 410
386 400
386 401
387 415
387 423
387 427
387 407
391 431
391 416
392 413
392 426
393 405
394 407
394 420
394 419
394 400
395 429
395 432
397 441
398 424
399 410
399 419
400 412
400 413
400 414
402 423
402 431
402 433
403 426
403 433
405 406
405 414
407 412
407 420
407 428
407 425
410 419
410 425
411 439
411 429
412 422
412 426
412 427
413 418
413 419
413 433
414 418
414 419
414 427
415 431
416 440
416 431
417 418
417 419
419 425
419 432
420 428
420 435
422 430
424 426
424 427
425 426
425 427
425 432
425 437
427 434
428 435
428 439
429 439
430 436
431 440
432 437
434 438
435 439
436 440
438 441
